Ce Ge O 
 1.0000000000000000
     4.0800000000000001    0.0000000000000000    0.0000000000000000
     0.0000000000000000    4.0800000000000001    0.0000000000000000
     0.0000000000000000    0.0000000000000000    7.2199999999999998
 Ce  Ge  O  
   2   2   2
Direct
  0.0000000000000000  0.5000000000000000  0.1675900299999999
  0.5000000000000000  0.0000000000000000  0.8324099700000001
  0.0000000000000000  0.0000000000000000  0.5000000000000000
  0.5000000000000000  0.5000000000000000  0.5000000000000000
  0.0000000000000000  0.0000000000000000  0.0000000000000000
  0.5000000000000000  0.5000000000000000  0.0000000000000000
