Ce Ge Sb Pd
 1.0000000000000000
     4.2500000000000000    0.0000000000000000    0.0000000000000000
     0.0000000000000000    4.2500000000000000    0.0000000000000000
     0.0000000000000000    0.0000000000000000   10.8599999999999994
 Ce  Ge  Sb  Pd 
   2   2   2   2
Direct
  0.0000000000000000  0.5000000000000000  0.7688766100000001
  0.5000000000000000  0.0000000000000000  0.2311233900000001
  0.0000000000000000  0.5000000000000000  0.3692449400000000
  0.5000000000000000  0.0000000000000000  0.6307550600000000
  0.0000000000000000  0.0000000000000000  0.0000000000000000
  0.5000000000000000  0.5000000000000000  0.0000000000000000
  0.0000000000000000  0.0000000000000000  0.5000000000000000
  0.5000000000000000  0.5000000000000000  0.5000000000000000
