Ce Bi O 
 1.0000000000000000
     4.0250000000000004    0.0000000000000000    0.0000000000000000
     0.0000000000000000    4.0250000000000004    0.0000000000000000
     0.0000000000000000    0.0000000000000000   13.4399999999999995
 Ce  Bi  O  
   4   2   4
Direct
  0.0000000000000000  0.0000000000000000  0.3400297600000000
  0.0000000000000000  0.0000000000000000  0.6599702399999999
  0.5000000000000000  0.5000000000000000  0.8400297600000000
  0.5000000000000000  0.5000000000000000  0.1599702400000000
  0.0000000000000000  0.0000000000000000  0.0000000000000000
  0.5000000000000000  0.5000000000000000  0.5000000000000000
  0.0000000000000000  0.5000000000000000  0.2500000000000000
  0.0000000000000000  0.5000000000000000  0.7500000000000000
  0.5000000000000000  0.0000000000000000  0.2500000000000000
  0.5000000000000000  0.0000000000000000  0.7500000000000000
