Fe17Sm2  spacegroup 166  hR19  MLIP e_above_hull 0.0215 eV/atom  (DFT-relaxed, Fe-Sm campaign)
 1.0000000000000000
     7.3813638833067481   -4.2616324250137296    0.0000000000000005
     0.0000000000000000    8.5232648500274628    0.0000000000000005
     0.0000000000000000    0.0000000000000000   12.4881926950957478
 Fe  Sm 
  51   6
Direct
  0.5000000000000000  0.0000000000000000  0.5000000000000000
  0.9980048712345293  0.4990024356172647  0.1570492847119376
  0.4990024356172647  0.5009975643827355  0.8429507152880625
  0.0019951287654709  0.5009975643827355  0.8429507152880625
  0.4990024356172647  0.9980048712345292  0.8429507152880625
  0.1676642310494021  0.8323357689505979  0.4903826180452709
  0.1676642310494021  0.3353284620988041  0.4903826180452710
  0.6646715379011959  0.8323357689505979  0.4903826180452709
  0.1656691022839312  0.8343308977160689  0.1762840486213957
  0.6686617954321379  0.8343308977160689  0.1762840486213957
  0.1656691022839312  0.3313382045678623  0.1762840486213957
  0.5009975643827355  0.4990024356172646  0.1570492847119376
  0.8343308977160688  0.1656691022839311  0.8237159513786042
  0.3313382045678623  0.1656691022839312  0.8237159513786042
  0.8323357689505979  0.1676642310494021  0.5096173819547291
  0.3353284620988042  0.1676642310494021  0.5096173819547291
  0.8323357689505979  0.6646715379011957  0.5096173819547291
  0.0000000000000000  0.0000000000000000  0.9048870041347458
  0.0000000000000000  0.0000000000000000  0.0951129958652541
  0.6666666666666669  0.3333333333333333  0.2382203374680791
  0.6666666666666669  0.3333333333333333  0.4284463291985873
  0.3333333333333334  0.6666666666666666  0.5715536708014124
  0.3333333333333334  0.6666666666666666  0.7617796625319208
  0.8343308977160688  0.6686617954321376  0.8237159513786042
  0.0403854665071339  0.3737187998404672  0.6666666666666667
  0.5009975643827355  0.0019951287654709  0.1570492847119376
  0.6262812001595328  0.6666666666666666  0.6666666666666667
  0.0000000000000000  0.5000000000000000  0.5000000000000000
  0.5000000000000000  0.5000000000000000  0.5000000000000000
  0.1666666666666668  0.3333333333333333  0.8333333333333334
  0.6666666666666669  0.8333333333333333  0.8333333333333334
  0.1666666666666668  0.8333333333333334  0.8333333333333334
  0.8333333333333334  0.6666666666666666  0.1666666666666667
  0.3333333333333334  0.1666666666666667  0.1666666666666667
  0.8333333333333334  0.1666666666666668  0.1666666666666667
  0.7070521331738007 -0.0000000000000000 -0.0000000000000000
  0.3333333333333334  0.9596145334928661  0.6666666666666667
  0.2929478668261996  0.2929478668261994 -0.0000000000000000
  0.2929478668261996  0.0000000000000000 -0.0000000000000000
  0.0000000000000000  0.7070521331738004  0.0000000000000000
  0.7070521331738007  0.7070521331738004 -0.0000000000000000
  0.6262812001595328  0.9596145334928661  0.6666666666666667
  0.0000000000000000  0.2929478668261994  0.0000000000000000
  0.0403854665071339  0.6666666666666666  0.6666666666666667
  0.3737187998404672  0.0403854665071339  0.3333333333333334
  0.3333333333333334  0.3737187998404671  0.6666666666666667
  0.9596145334928661  0.3333333333333334  0.3333333333333333
  0.9596145334928661  0.6262812001595328  0.3333333333333333
  0.6666666666666669  0.0403854665071339  0.3333333333333334
  0.3737187998404672  0.3333333333333334  0.3333333333333334
  0.6666666666666669  0.6262812001595328  0.3333333333333333
  0.3333333333333334  0.6666666666666666  0.3257767806635341
  0.0000000000000000  0.0000000000000000  0.6591101139968673
  0.0000000000000000  0.0000000000000000  0.3408898860031326
  0.6666666666666669  0.3333333333333333  0.9924434473302006
  0.6666666666666669  0.3333333333333333  0.6742232193364660
  0.3333333333333334  0.6666666666666666  0.0075565526697993
