Fe4Sm1  spacegroup 12  mS30  MLIP e_above_hull 0.0319 eV/atom  (DFT-relaxed, Fe-Sm campaign)
 1.0000000000000000
     5.0196982472451905    0.0000000000000004   -0.7854912530132055
     0.0000000000000000    8.8958996050842547    0.0000000000000005
     0.0000000000000000    0.0000000000000000   10.2302993003453526
 Fe  Sm 
  24   6
Direct
  0.6217025919701240  0.1788213174978703  0.4013213700478391
  0.5000000000000000  0.8341659595192381  0.0000000000000000
  0.5000000000000000  0.1658340404807619  0.0000000000000000
  0.0000000000000000  0.3341659595192381 -0.0000000000000000
  0.0000000000000000  0.6658340404807619 -0.0000000000000000
  0.1887401980311143  0.2495695702705025  0.8033967839668277
  0.8112598019688856  0.2495695702705025  0.1966032160331723
  0.8112598019688856  0.7504304297294975  0.1966032160331723
  0.1887401980311143  0.7504304297294975  0.8033967839668277
  0.6887401980311143  0.7495695702705025  0.8033967839668277
  0.3112598019688857  0.2504304297294975  0.1966032160331723
  0.6887401980311143  0.2504304297294975  0.8033967839668277
  0.3112598019688857  0.7495695702705024  0.1966032160331723
  0.9369302404697853  0.5000000000000000  0.8012369507143551
  0.3782974080298760  0.1788213174978702  0.5986786299521609
  0.3782974080298760  0.8211786825021298  0.5986786299521609
  0.0630697595302147  0.5000000000000000  0.1987630492856449
  0.1217025919701240  0.6788213174978702  0.4013213700478391
  0.8782974080298760  0.6788213174978703  0.5986786299521609
  0.6217025919701240  0.8211786825021298  0.4013213700478391
  0.1217025919701240  0.3211786825021298  0.4013213700478391
  0.4369302404697853 -0.0000000000000000  0.8012369507143551
  0.5630697595302148 -0.0000000000000000  0.1987630492856449
  0.8782974080298760  0.3211786825021297  0.5986786299521610
  0.0000000000000000  0.0000000000000000  0.0000000000000000
  0.8833625085515928  0.0000000000000000  0.6444760363754006
  0.1166374914484072  0.0000000000000000  0.3555239636245995
  0.3833625085515928  0.5000000000000000  0.6444760363754005
  0.6166374914484072  0.5000000000000000  0.3555239636245995
  0.5000000000000000  0.5000000000000000  0.0000000000000000
