Fe3Sm1  spacegroup 166  hR36  MLIP e_above_hull 0.0121 eV/atom  (DFT-relaxed, Fe-Sm campaign)
 1.0000000000000000
     4.4834623316996982   -2.5885281841083665    0.0000000000000003
     0.0000000000000000    5.1770563682167356    0.0000000000000003
     0.0000000000000000    0.0000000000000000   24.5083939276115466
 Fe  Sm 
  27   9
Direct
  0.4982875033427515  0.5017124966572486  0.0807372734934404
  0.3333333333333333  0.6666666666666666  0.1666666666666667
  0.6666666666666666  0.3333333333333333  0.8333333333333336
  0.0000000000000000  0.0000000000000000  0.5000000000000000
  0.3333333333333333  0.6666666666666666  0.3344404988540921
  0.3333333333333333  0.6666666666666666  0.9988928344792414
  0.6666666666666666  0.3333333333333333  0.0011071655207587
  0.6666666666666666  0.3333333333333333  0.6655595011459079
  0.0000000000000000  0.0000000000000000  0.6677738321874254
  0.0000000000000000  0.0000000000000000  0.3322261678125746
  0.3299083400188361  0.1649541700094179  0.5859293931732263
  0.8350458299905819  0.1649541700094178  0.5859293931732263
  0.3367583266478305  0.1683791633239152  0.7474039401601072
  0.8350458299905819  0.6700916599811638  0.5859293931732263
  0.8316208366760847  0.1683791633239151  0.7474039401601072
  0.4982875033427515  0.9965750066855028  0.0807372734934404
  0.0034249933144972  0.5017124966572486  0.0807372734934404
  0.8316208366760847  0.6632416733521693  0.7474039401601072
  0.9965750066855029  0.4982875033427514  0.9192627265065597
  0.5017124966572486  0.0034249933144971  0.9192627265065598
  0.1649541700094179  0.8350458299905819  0.4140706068267738
  0.5017124966572486  0.4982875033427513  0.9192627265065598
  0.6700916599811638  0.8350458299905819  0.4140706068267738
  0.1683791633239152  0.8316208366760847  0.2525960598398930
  0.6632416733521693  0.8316208366760847  0.2525960598398929
  0.1683791633239152  0.3367583266478304  0.2525960598398930
  0.1649541700094179  0.3299083400188360  0.4140706068267738
  0.6666666666666666  0.3333333333333333  0.3333333333333334
  0.0000000000000000  0.0000000000000000  0.1414965382414796
  0.0000000000000000  0.0000000000000000  0.8585034617585207
  0.6666666666666666  0.3333333333333333  0.4748298715748130
  0.6666666666666666  0.3333333333333333  0.1918367950918538
  0.3333333333333333  0.6666666666666666  0.8081632049081464
  0.3333333333333333  0.6666666666666666  0.5251701284251872
  0.0000000000000000  0.0000000000000000  0.0000000000000000
  0.3333333333333333  0.6666666666666666  0.6666666666666669
