Fe12Sm1  spacegroup 139  tI26  MLIP e_above_hull 0.0331 eV/atom  (DFT-relaxed, Fe-Sm campaign)
 1.0000000000000000
     8.5140909144641732    0.0000000000000005    0.0000000000000005
     0.0000000000000000    8.5140909144641732    0.0000000000000005
     0.0000000000000000    0.0000000000000000    4.7599134299273196
 Fe  Sm 
  24   2
Direct
  0.1402359537089297  0.5000000000000000  0.0000000000000000
  0.5000000000000000  0.2735749654799970  0.5000000000000000
  0.5000000000000000  0.7264250345200030  0.5000000000000000
  0.2735749654799971  0.5000000000000000  0.5000000000000000
  0.7264250345200030  0.5000000000000000  0.5000000000000000
  0.0000000000000000  0.7735749654799970 -0.0000000000000000
  0.0000000000000000  0.2264250345200030  0.0000000000000000
  0.7735749654799970 -0.0000000000000000 -0.0000000000000000
  0.2264250345200030 -0.0000000000000000  0.0000000000000000
  0.7500000000000000  0.2500000000000000  0.7500000000000000
  0.2500000000000000  0.7500000000000000  0.7500000000000000
  0.2500000000000000  0.2500000000000000  0.7500000000000000
  0.7500000000000000  0.7500000000000000  0.7500000000000000
  0.2500000000000000  0.7500000000000000  0.2500000000000000
  0.7500000000000000  0.2500000000000000  0.2500000000000000
  0.7500000000000000  0.7500000000000000  0.2500000000000000
  0.2500000000000000  0.2500000000000000  0.2500000000000000
  0.0000000000000000  0.3597640462910703  0.5000000000000000
  0.0000000000000000  0.6402359537089299  0.5000000000000000
  0.3597640462910703 -0.0000000000000000  0.5000000000000000
  0.6402359537089299 -0.0000000000000000  0.5000000000000000
  0.5000000000000000  0.8597640462910705 -0.0000000000000000
  0.5000000000000000  0.1402359537089298 -0.0000000000000000
  0.8597640462910703  0.5000000000000001 -0.0000000000000000
  0.0000000000000000  0.0000000000000000  0.5000000000000000
  0.5000000000000000  0.5000000000000000 -0.0000000000000000
