Fe5Sm1  spacegroup 191  hP6  MLIP e_above_hull 0.0077 eV/atom  (DFT-relaxed, Fe-Sm campaign)
 1.0000000000000000
     4.4082989154196506   -2.5451325654858690    0.0000000000000003
     0.0000000000000000    5.0902651309717406    0.0000000000000003
     0.0000000000000000    0.0000000000000000    3.9680553351434718
 Fe  Sm 
   5   1
Direct
  0.3333333333333334  0.6666666666666666  0.0000000000000000
  0.6666666666666669  0.3333333333333333  0.0000000000000000
  0.5000000000000000 -0.0000000000000000  0.5000000000000000
  0.0000000000000000  0.5000000000000000  0.5000000000000000
  0.5000000000000000  0.5000000000000000  0.5000000000000000
  0.0000000000000000  0.0000000000000000  0.0000000000000000
